c "41090.clq"
p edge 200 784
e 1 5
e 1 7
e 1 10
e 1 13
e 1 14
e 1 16
e 1 18
e 1 19
e 1 24
e 1 25
e 1 26
e 1 33
e 1 39
e 1 46
e 1 58
e 1 63
e 1 67
e 1 70
e 1 75
e 1 76
e 1 82
e 1 92
e 1 98
e 1 102
e 1 107
e 1 119
e 1 131
e 1 133
e 1 165
e 1 174
e 1 181
e 2 5
e 2 6
e 2 7
e 2 8
e 2 9
e 2 11
e 2 12
e 2 15
e 2 17
e 2 18
e 2 37
e 2 38
e 2 41
e 2 42
e 2 47
e 2 48
e 2 49
e 2 60
e 2 61
e 2 112
e 2 114
e 2 120
e 2 125
e 2 142
e 2 145
e 2 180
e 2 181
e 2 183
e 2 192
e 3 5
e 3 6
e 3 7
e 3 8
e 3 14
e 3 18
e 3 31
e 3 34
e 3 37
e 3 39
e 3 40
e 3 56
e 3 86
e 3 89
e 3 94
e 3 95
e 3 129
e 3 150
e 3 152
e 3 173
e 3 182
e 3 199
e 4 5
e 4 6
e 4 23
e 4 42
e 4 45
e 4 80
e 4 88
e 4 98
e 4 100
e 4 110
e 4 176
e 4 182
e 5 6
e 5 11
e 5 12
e 5 13
e 5 17
e 5 19
e 5 45
e 5 50
e 5 54
e 5 60
e 5 88
e 5 92
e 5 102
e 5 139
e 5 146
e 5 167
e 5 168
e 5 172
e 5 178
e 5 179
e 6 7
e 6 8
e 6 9
e 6 12
e 6 13
e 6 14
e 6 16
e 6 18
e 6 20
e 6 22
e 6 23
e 6 39
e 6 46
e 6 55
e 6 88
e 6 89
e 6 95
e 6 109
e 6 113
e 6 123
e 6 136
e 6 138
e 6 152
e 6 158
e 6 163
e 6 167
e 6 175
e 7 8
e 7 9
e 7 10
e 7 11
e 7 17
e 7 20
e 7 22
e 7 28
e 7 33
e 7 35
e 7 38
e 7 54
e 7 59
e 7 91
e 7 93
e 7 115
e 7 135
e 7 155
e 7 158
e 7 173
e 7 176
e 7 185
e 7 188
e 7 199
e 8 9
e 8 10
e 8 11
e 8 12
e 8 19
e 8 20
e 8 23
e 8 26
e 8 28
e 8 31
e 8 35
e 8 37
e 8 39
e 8 43
e 8 65
e 8 74
e 8 76
e 8 80
e 8 103
e 8 114
e 8 118
e 8 121
e 8 122
e 8 161
e 8 169
e 8 186
e 9 10
e 9 15
e 9 16
e 9 25
e 9 26
e 9 30
e 9 42
e 9 47
e 9 64
e 9 71
e 9 73
e 9 81
e 9 82
e 9 86
e 9 116
e 9 159
e 10 48
e 10 149
e 10 153
e 10 164
e 11 13
e 11 14
e 11 15
e 11 24
e 11 29
e 11 49
e 11 66
e 11 68
e 11 77
e 11 83
e 11 96
e 11 101
e 11 111
e 11 131
e 11 139
e 11 142
e 11 174
e 12 17
e 12 19
e 12 21
e 12 31
e 12 43
e 12 50
e 12 53
e 12 64
e 12 67
e 12 69
e 12 72
e 12 73
e 12 78
e 12 94
e 12 105
e 12 109
e 12 120
e 12 129
e 12 143
e 12 151
e 12 155
e 12 184
e 12 186
e 12 198
e 13 21
e 13 34
e 13 56
e 13 57
e 13 60
e 13 65
e 13 74
e 13 75
e 13 79
e 13 85
e 13 87
e 13 99
e 13 105
e 13 118
e 13 130
e 13 157
e 13 175
e 13 184
e 13 192
e 14 15
e 14 21
e 14 142
e 15 16
e 15 20
e 15 21
e 15 22
e 15 25
e 15 27
e 15 30
e 15 36
e 15 38
e 15 41
e 15 43
e 15 44
e 15 61
e 15 71
e 15 92
e 15 99
e 15 106
e 15 107
e 15 117
e 15 119
e 15 129
e 15 134
e 15 146
e 15 161
e 15 168
e 15 170
e 15 178
e 15 185
e 15 200
e 16 22
e 16 27
e 16 28
e 16 29
e 16 30
e 16 51
e 16 57
e 16 61
e 16 62
e 16 63
e 16 66
e 16 83
e 16 111
e 16 113
e 16 130
e 17 27
e 17 32
e 17 44
e 17 51
e 17 59
e 17 63
e 17 67
e 17 70
e 17 72
e 17 84
e 17 95
e 17 110
e 17 117
e 17 127
e 17 128
e 17 146
e 17 164
e 17 169
e 17 170
e 17 174
e 17 181
e 17 196
e 18 24
e 18 29
e 18 34
e 18 56
e 18 71
e 18 84
e 18 85
e 18 89
e 18 96
e 18 115
e 19 25
e 19 49
e 19 78
e 19 103
e 19 111
e 19 121
e 19 166
e 19 179
e 20 24
e 20 36
e 20 64
e 20 97
e 21 27
e 21 33
e 21 52
e 21 57
e 21 74
e 21 77
e 21 89
e 21 91
e 21 108
e 21 130
e 21 148
e 21 161
e 21 183
e 22 23
e 22 28
e 22 31
e 22 32
e 22 38
e 22 43
e 22 50
e 22 52
e 22 53
e 22 62
e 22 67
e 22 83
e 22 87
e 22 88
e 22 96
e 22 110
e 22 111
e 22 113
e 22 114
e 22 126
e 22 137
e 22 145
e 22 146
e 22 151
e 22 173
e 23 26
e 23 32
e 23 46
e 23 48
e 23 148
e 23 157
e 23 162
e 23 180
e 24 29
e 24 44
e 24 51
e 24 55
e 24 61
e 24 62
e 24 106
e 24 177
e 25 30
e 25 32
e 25 37
e 25 48
e 25 65
e 25 74
e 25 79
e 25 99
e 25 133
e 25 147
e 25 176
e 26 66
e 26 151
e 27 34
e 27 85
e 27 97
e 27 131
e 27 132
e 27 147
e 27 153
e 27 184
e 28 56
e 28 66
e 29 33
e 29 35
e 29 40
e 29 72
e 29 153
e 29 155
e 29 162
e 30 81
e 30 108
e 30 156
e 30 167
e 30 175
e 30 200
e 31 35
e 31 36
e 31 96
e 31 112
e 31 124
e 31 154
e 31 195
e 32 36
e 32 105
e 32 183
e 32 195
e 33 47
e 33 64
e 33 98
e 33 100
e 33 196
e 34 44
e 34 53
e 34 62
e 34 72
e 34 73
e 34 83
e 34 121
e 34 176
e 34 190
e 35 40
e 35 41
e 35 45
e 35 46
e 35 52
e 35 55
e 35 57
e 35 84
e 35 90
e 35 93
e 35 104
e 35 106
e 35 107
e 35 119
e 35 128
e 35 171
e 35 192
e 36 40
e 36 42
e 36 45
e 36 73
e 36 80
e 36 85
e 36 108
e 37 69
e 37 135
e 37 179
e 37 191
e 39 143
e 39 167
e 40 41
e 40 54
e 40 100
e 40 130
e 40 144
e 40 164
e 41 76
e 41 101
e 41 114
e 41 138
e 41 141
e 41 163
e 42 47
e 42 58
e 42 68
e 42 92
e 42 104
e 42 121
e 42 137
e 42 169
e 42 185
e 43 70
e 43 118
e 43 123
e 43 165
e 43 180
e 43 190
e 44 59
e 44 86
e 44 90
e 44 100
e 44 105
e 44 133
e 44 141
e 44 150
e 44 166
e 44 178
e 45 50
e 45 70
e 46 49
e 46 60
e 47 51
e 47 53
e 47 125
e 47 197
e 48 69
e 48 103
e 48 132
e 48 149
e 49 63
e 49 108
e 49 134
e 49 195
e 49 196
e 50 52
e 50 58
e 50 148
e 51 54
e 51 58
e 51 76
e 51 78
e 51 144
e 51 171
e 51 177
e 51 200
e 52 55
e 52 59
e 52 75
e 52 107
e 53 94
e 53 172
e 53 174
e 54 68
e 54 69
e 54 71
e 54 77
e 54 81
e 54 116
e 54 133
e 55 189
e 56 75
e 56 97
e 56 120
e 56 123
e 56 126
e 56 131
e 56 166
e 56 186
e 57 194
e 58 90
e 58 103
e 58 119
e 59 98
e 59 126
e 59 136
e 60 65
e 60 81
e 60 102
e 60 132
e 60 149
e 60 158
e 60 198
e 61 124
e 61 154
e 62 79
e 63 87
e 63 115
e 63 118
e 63 122
e 63 132
e 63 136
e 63 155
e 63 158
e 63 162
e 63 196
e 64 77
e 64 97
e 64 134
e 64 145
e 64 147
e 65 68
e 66 78
e 66 80
e 66 122
e 66 162
e 66 193
e 67 101
e 67 120
e 67 122
e 67 128
e 67 136
e 67 143
e 68 127
e 68 159
e 68 177
e 69 90
e 69 91
e 69 117
e 69 145
e 69 186
e 70 123
e 70 140
e 70 165
e 71 87
e 71 139
e 72 143
e 72 193
e 73 110
e 73 140
e 74 79
e 75 82
e 75 127
e 75 152
e 75 156
e 75 177
e 75 189
e 75 193
e 75 194
e 75 197
e 75 199
e 76 95
e 76 144
e 76 172
e 77 94
e 77 144
e 77 154
e 77 156
e 77 187
e 77 190
e 78 84
e 78 93
e 78 109
e 78 178
e 79 82
e 79 152
e 79 156
e 80 138
e 80 170
e 81 125
e 81 198
e 82 86
e 82 138
e 82 148
e 82 169
e 83 104
e 83 159
e 83 179
e 84 117
e 85 99
e 85 113
e 85 160
e 85 189
e 86 91
e 86 104
e 86 140
e 86 182
e 86 188
e 87 157
e 88 93
e 88 184
e 90 124
e 90 188
e 91 180
e 92 112
e 94 101
e 94 109
e 94 139
e 95 154
e 95 157
e 95 160
e 97 135
e 97 168
e 99 161
e 99 175
e 100 102
e 100 106
e 100 116
e 102 126
e 102 160
e 102 192
e 102 193
e 103 140
e 103 185
e 104 137
e 104 191
e 105 112
e 105 170
e 108 129
e 108 173
e 108 195
e 109 116
e 109 141
e 109 194
e 110 125
e 110 163
e 111 135
e 113 115
e 113 124
e 113 171
e 115 153
e 117 128
e 118 134
e 120 150
e 120 172
e 122 141
e 122 150
e 122 164
e 122 165
e 123 127
e 124 151
e 126 191
e 129 182
e 131 137
e 131 166
e 131 190
e 132 160
e 133 159
e 136 147
e 139 142
e 141 181
e 146 149
e 147 187
e 148 188
e 149 163
e 149 168
e 153 199
e 156 187
e 162 194
e 162 198
e 165 197
e 166 189
e 166 191
e 167 171
e 168 200
e 177 183
e 178 187
e 181 197
